qbf_easy_train/easy_778_SAT.qdimacs
p cnf 25 64
a 4 21 0
e 1 2 3 5 6 7 8 9 10 11 12 13 14 15 16 17 18 19 20 22 23 24 25 0
-1 2 -3 0
1 -2 -3 0
-1 -2 3 0
1 2 3 0
3 4 -5 0
-3 -4 -5 0
3 -4 5 0
-3 4 5 0
-7 5 0
-7 6 0
-5 -6 7 0
-9 8 0
-9 4 0
-8 -4 9 0
-10 6 0
-10 -9 0
-6 9 10 0
11 8 0
11 4 0
-8 -4 -11 0
-11 -9 -12 0
11 9 -12 0
-11 9 12 0
11 -9 12 0
-11 12 -13 0
11 -12 -13 0
-11 -12 13 0
11 12 13 0
14 10 0
14 13 0
-10 -13 -14 0
15 7 0
15 -14 0
-7 14 -15 0
17 9 0
17 10 0
-9 -10 -17 0
-16 17 -18 0
16 -17 -18 0
-16 -17 18 0
16 17 18 0
-20 19 0
-20 -13 0
-19 13 20 0
-18 20 -21 0
18 -20 -21 0
-18 -20 21 0
18 20 21 0
-22 15 0
-22 21 0
-15 -21 22 0
24 23 0
24 -11 0
-23 11 -24 0
25 22 0
25 -24 0
-22 24 -25 0
15 -8 12 0
12 -7 13 0
-2 15 20 -22 0
-7 12 -15 1 -23 -16 10 0
-22 23 -17 2 -10 0
-22 -16 19 10 -12 21 -20 0
25 0
