sat_easy_train/easy_778_SAT.dimacs
p cnf 103 337
3 2 0
3 -1 0
-2 1 -3 0
-3 -1 -4 0
3 1 -4 0
-3 1 4 0
3 -1 4 0
5 1 0
5 4 0
-1 -4 -5 0
8 -6 0
8 -7 0
6 7 -8 0
9 5 0
9 8 0
-5 -8 -9 0
-10 -9 0
-10 -2 0
9 2 10 0
-12 11 0
-12 -1 0
-11 1 12 0
3 -12 -13 0
-3 12 -13 0
3 12 13 0
-3 -12 13 0
10 -13 -14 0
-10 13 -14 0
10 13 14 0
-10 -13 14 0
-17 -16 0
-17 16 0
2 -18 0
-2 -18 0
19 -17 0
19 18 0
17 -18 -19 0
-19 -5 -20 0
19 5 -20 0
-19 5 20 0
19 -5 20 0
-21 -15 0
-21 20 0
15 -20 21 0
-14 21 -22 0
14 -21 -22 0
-14 -21 22 0
14 21 22 0
-23 -15 0
-23 17 0
15 -17 23 0
24 -12 -25 0
-24 12 -25 0
24 12 25 0
-24 -12 25 0
-12 -25 -26 0
12 25 -26 0
-12 25 26 0
12 -25 26 0
23 -26 -27 0
-23 26 -27 0
23 26 27 0
-23 -26 27 0
-28 -17 -29 0
28 17 -29 0
-28 17 29 0
28 -17 29 0
31 -30 0
31 16 0
30 -16 -31 0
-29 -31 -32 0
29 31 -32 0
-29 31 32 0
29 -31 32 0
34 15 0
34 -33 0
-15 33 -34 0
-35 -15 0
-35 34 0
15 -34 35 0
36 -35 0
36 4 0
35 -4 -36 0
38 -36 0
38 -37 0
36 37 -38 0
-32 -38 -39 0
32 38 -39 0
-32 38 39 0
32 -38 39 0
41 33 0
41 -24 0
-33 24 -41 0
-42 -40 0
-42 41 0
40 -41 42 0
7 18 -43 0
-7 -18 -43 0
7 -18 43 0
-7 18 43 0
-44 -41 0
-44 43 0
41 -43 44 0
45 -42 0
45 44 0
42 -44 -45 0
46 29 0
46 -45 0
-29 45 -46 0
47 -39 0
47 46 0
39 -46 -47 0
48 27 0
48 -47 0
-27 47 -48 0
-49 -24 0
-49 -1 0
24 1 49 0
50 18 0
50 -34 0
-18 34 -50 0
-51 49 0
-51 -50 0
-49 50 51 0
48 51 -52 0
-48 -51 -52 0
48 -51 52 0
-48 51 52 0
-53 -22 0
-53 -52 0
22 52 53 0
4 9 -54 0
-4 -9 -54 0
4 -9 54 0
-4 9 54 0
55 -28 0
55 42 0
28 -42 -55 0
-56 55 0
-56 20 0
-55 -20 56 0
57 -54 0
57 56 0
54 -56 -57 0
-34 -42 -58 0
34 42 -58 0
-34 42 58 0
34 -42 58 0
-59 -30 0
-59 58 0
30 -58 59 0
60 59 0
60 19 0
-59 -19 -60 0
57 -60 -61 0
-57 60 -61 0
57 60 61 0
-57 -60 61 0
-33 -15 -62 0
33 15 -62 0
-33 15 62 0
33 -15 62 0
-63 41 0
-63 -2 0
-41 2 63 0
-62 -63 -64 0
62 63 -64 0
-62 63 64 0
62 -63 64 0
65 61 0
65 -64 0
-61 64 -65 0
66 -16 -67 0
-66 16 -67 0
66 16 67 0
-66 -16 67 0
-68 -11 0
-68 -9 0
11 9 68 0
-69 67 0
-69 68 0
-67 -68 69 0
71 5 0
71 -70 0
-5 70 -71 0
36 -71 -72 0
-36 71 -72 0
36 71 72 0
-36 -71 72 0
-43 -6 -73 0
43 6 -73 0
-43 6 73 0
43 -6 73 0
74 72 0
74 73 0
-72 -73 -74 0
-75 69 0
-75 74 0
-69 -74 75 0
-4 -70 -76 0
4 70 -76 0
-4 70 76 0
4 -70 76 0
77 -41 0
77 76 0
41 -76 -77 0
-78 19 0
-78 2 0
-19 -2 78 0
79 -78 0
79 50 0
78 -50 -79 0
77 79 -80 0
-77 -79 -80 0
77 -79 80 0
-77 79 80 0
81 -78 0
81 5 0
78 -5 -81 0
42 -33 -82 0
-42 33 -82 0
42 33 82 0
-42 -33 82 0
-83 -81 0
-83 82 0
81 -82 83 0
-84 -83 0
-84 -28 0
83 28 84 0
85 -5 0
85 12 0
5 -12 -85 0
29 85 -86 0
-29 -85 -86 0
29 -85 86 0
-29 85 86 0
-86 50 -87 0
86 -50 -87 0
-86 -50 87 0
86 50 87 0
-88 -87 0
-88 -45 0
87 45 88 0
-83 -88 -89 0
83 88 -89 0
-83 88 89 0
83 -88 89 0
-90 84 0
-90 -89 0
-84 89 90 0
-91 80 0
-91 90 0
-80 -90 91 0
92 -17 0
92 40 0
17 -40 -92 0
93 83 0
93 92 0
-83 -92 -93 0
-19 -1 -94 0
19 1 -94 0
-19 1 94 0
19 -1 94 0
59 94 -95 0
-59 -94 -95 0
59 -94 95 0
-59 94 95 0
97 -66 0
97 96 0
66 -96 -97 0
98 95 0
98 97 0
-95 -97 -98 0
93 98 -99 0
-93 -98 -99 0
93 -98 99 0
-93 98 99 0
91 -99 -100 0
-91 99 -100 0
91 99 100 0
-91 -99 100 0
101 -75 0
101 -100 0
75 100 -101 0
-65 -101 -102 0
65 101 -102 0
-65 101 102 0
65 -101 102 0
53 102 -103 0
-53 -102 -103 0
53 -102 103 0
-53 102 103 0
-77 -92 -3 25 62 0
-71 -103 0
40 -101 -61 70 0
55 34 61 20 77 -42 0
2 71 -81 89 48 0
73 49 -66 -62 0
-36 90 89 -81 0
-19 -7 -61 8 -96 0
9 73 -75 0
72 -38 -33 64 -98 27 0
-14 -4 51 84 0
8 -81 -30 0
-52 -11 24 0
15 -26 68 -73 99 0
-57 -12 44 5 8 0
-6 50 0
31 71 7 28 103 0
-12 -54 -10 82 0
86 -23 -84 9 91 -80 0
-84 65 81 33 0
-82 93 74 94 0
-102 34 43 59 -39 0
11 -103 56 53 -31 -42 0
-81 13 -7 48 0
96 -41 -39 102 12 0
-40 -58 0
-23 95 91 81 67 0
63 84 40 -14 -8 91 0
11 -99 102 84 42 74 0
-16 -36 92 -25 0
-7 -10 0
63 92 42 50 -34 -86 0
32 -98 54 0
58 -80 -39 0
-42 -70 -37 0
-24 37 -66 12 0
29 -38 75 0
11 46 32 0
-69 60 13 -36 9 80 0
-5 86 28 42 0
-78 -53 -31 32 0
29 -47 0
91 -38 -29 48 0
-8 81 32 85 34 0
103 0
